(set-logic QF_LRA)
(declare-fun T1 () Real )
(declare-fun T2 () Real )
(declare-fun T3 () Real )
(declare-fun T4 () Real )
(declare-fun T5 () Real )
(declare-fun T6 () Real )
(declare-fun T7 () Real )
(declare-fun T8 () Real )
(declare-fun Z () Real )
(declare-fun k () Real )
(assert (let
(( $goal (>= Z k) ))
(let
((
$phi ( and 
(or ( <= ( + T1 50 ) T2 ) ( <= ( + T2 40 ) T1 ) )
(or ( <= ( + T1 123 )  ( + T2 40 ) ) ( <= ( + T2 109 )( + T1 50 ) ) )
(or ( <= ( + T1 200 )  ( + T2 109 ) ) ( <= ( + T2 127 )( + T1 123 ) ) )
(or ( <= ( + T1 280 )  ( + T2 127 ) ) ( <= ( + T2 156 )( + T1 200 ) ) )
(or ( <= ( + T1 369 )  ( + T2 156 ) ) ( <= ( + T2 160 )( + T1 280 ) ) )
(or ( <= ( + T1 413 )  ( + T2 160 ) ) ( <= ( + T2 259 )( + T1 369 ) ) )
(or ( <= ( + T1 50 ) T3 ) ( <= ( + T3 8 ) T1 ) )
(or ( <= ( + T1 123 )  ( + T3 8 ) ) ( <= ( + T3 92 )( + T1 50 ) ) )
(or ( <= ( + T1 200 )  ( + T3 92 ) ) ( <= ( + T3 132 )( + T1 123 ) ) )
(or ( <= ( + T1 280 )  ( + T3 132 ) ) ( <= ( + T3 199 )( + T1 200 ) ) )
(or ( <= ( + T1 369 )  ( + T3 199 ) ) ( <= ( + T3 266 )( + T1 280 ) ) )
(or ( <= ( + T1 413 )  ( + T3 266 ) ) ( <= ( + T3 366 )( + T1 369 ) ) )
(or ( <= ( + T1 50 ) T4 ) ( <= ( + T4 74 ) T1 ) )
(or ( <= ( + T1 123 )  ( + T4 74 ) ) ( <= ( + T4 169 )( + T1 50 ) ) )
(or ( <= ( + T1 200 )  ( + T4 169 ) ) ( <= ( + T4 197 )( + T1 123 ) ) )
(or ( <= ( + T1 280 )  ( + T4 197 ) ) ( <= ( + T4 231 )( + T1 200 ) ) )
(or ( <= ( + T1 369 )  ( + T4 231 ) ) ( <= ( + T4 302 )( + T1 280 ) ) )
(or ( <= ( + T1 413 )  ( + T4 302 ) ) ( <= ( + T4 341 )( + T1 369 ) ) )
(or ( <= ( + T1 50 ) T5 ) ( <= ( + T5 6 ) T1 ) )
(or ( <= ( + T1 123 )  ( + T5 6 ) ) ( <= ( + T5 47 )( + T1 50 ) ) )
(or ( <= ( + T1 200 )  ( + T5 47 ) ) ( <= ( + T5 83 )( + T1 123 ) ) )
(or ( <= ( + T1 280 )  ( + T5 83 ) ) ( <= ( + T5 132 )( + T1 200 ) ) )
(or ( <= ( + T1 369 )  ( + T5 132 ) ) ( <= ( + T5 187 )( + T1 280 ) ) )
(or ( <= ( + T1 413 )  ( + T5 187 ) ) ( <= ( + T5 231 )( + T1 369 ) ) )
(or ( <= ( + T1 50 ) T6 ) ( <= ( + T6 70 ) T1 ) )
(or ( <= ( + T1 123 )  ( + T6 70 ) ) ( <= ( + T6 127 )( + T1 50 ) ) )
(or ( <= ( + T1 200 )  ( + T6 127 ) ) ( <= ( + T6 143 )( + T1 123 ) ) )
(or ( <= ( + T1 280 )  ( + T6 143 ) ) ( <= ( + T6 189 )( + T1 200 ) ) )
(or ( <= ( + T1 369 )  ( + T6 189 ) ) ( <= ( + T6 225 )( + T1 280 ) ) )
(or ( <= ( + T1 413 )  ( + T6 225 ) ) ( <= ( + T6 229 )( + T1 369 ) ) )
(or ( <= ( + T1 50 ) T7 ) ( <= ( + T7 41 ) T1 ) )
(or ( <= ( + T1 123 )  ( + T7 41 ) ) ( <= ( + T7 68 )( + T1 50 ) ) )
(or ( <= ( + T1 200 )  ( + T7 68 ) ) ( <= ( + T7 92 )( + T1 123 ) ) )
(or ( <= ( + T1 280 )  ( + T7 92 ) ) ( <= ( + T7 103 )( + T1 200 ) ) )
(or ( <= ( + T1 369 )  ( + T7 103 ) ) ( <= ( + T7 111 )( + T1 280 ) ) )
(or ( <= ( + T1 413 )  ( + T7 111 ) ) ( <= ( + T7 190 )( + T1 369 ) ) )
(or ( <= ( + T1 50 ) T8 ) ( <= ( + T8 61 ) T1 ) )
(or ( <= ( + T1 123 )  ( + T8 61 ) ) ( <= ( + T8 76 )( + T1 50 ) ) )
(or ( <= ( + T1 200 )  ( + T8 76 ) ) ( <= ( + T8 138 )( + T1 123 ) ) )
(or ( <= ( + T1 280 )  ( + T8 138 ) ) ( <= ( + T8 238 )( + T1 200 ) ) )
(or ( <= ( + T1 369 )  ( + T8 238 ) ) ( <= ( + T8 271 )( + T1 280 ) ) )
(or ( <= ( + T1 413 )  ( + T8 271 ) ) ( <= ( + T8 300 )( + T1 369 ) ) )
(or ( <= ( + T2 40 ) T3 ) ( <= ( + T3 8 ) T2 ) )
(or ( <= ( + T2 109 )  ( + T3 8 ) ) ( <= ( + T3 92 )( + T2 40 ) ) )
(or ( <= ( + T2 127 )  ( + T3 92 ) ) ( <= ( + T3 132 )( + T2 109 ) ) )
(or ( <= ( + T2 156 )  ( + T3 132 ) ) ( <= ( + T3 199 )( + T2 127 ) ) )
(or ( <= ( + T2 160 )  ( + T3 199 ) ) ( <= ( + T3 266 )( + T2 156 ) ) )
(or ( <= ( + T2 259 )  ( + T3 266 ) ) ( <= ( + T3 366 )( + T2 160 ) ) )
(or ( <= ( + T2 40 ) T4 ) ( <= ( + T4 74 ) T2 ) )
(or ( <= ( + T2 109 )  ( + T4 74 ) ) ( <= ( + T4 169 )( + T2 40 ) ) )
(or ( <= ( + T2 127 )  ( + T4 169 ) ) ( <= ( + T4 197 )( + T2 109 ) ) )
(or ( <= ( + T2 156 )  ( + T4 197 ) ) ( <= ( + T4 231 )( + T2 127 ) ) )
(or ( <= ( + T2 160 )  ( + T4 231 ) ) ( <= ( + T4 302 )( + T2 156 ) ) )
(or ( <= ( + T2 259 )  ( + T4 302 ) ) ( <= ( + T4 341 )( + T2 160 ) ) )
(or ( <= ( + T2 40 ) T5 ) ( <= ( + T5 6 ) T2 ) )
(or ( <= ( + T2 109 )  ( + T5 6 ) ) ( <= ( + T5 47 )( + T2 40 ) ) )
(or ( <= ( + T2 127 )  ( + T5 47 ) ) ( <= ( + T5 83 )( + T2 109 ) ) )
(or ( <= ( + T2 156 )  ( + T5 83 ) ) ( <= ( + T5 132 )( + T2 127 ) ) )
(or ( <= ( + T2 160 )  ( + T5 132 ) ) ( <= ( + T5 187 )( + T2 156 ) ) )
(or ( <= ( + T2 259 )  ( + T5 187 ) ) ( <= ( + T5 231 )( + T2 160 ) ) )
(or ( <= ( + T2 40 ) T6 ) ( <= ( + T6 70 ) T2 ) )
(or ( <= ( + T2 109 )  ( + T6 70 ) ) ( <= ( + T6 127 )( + T2 40 ) ) )
(or ( <= ( + T2 127 )  ( + T6 127 ) ) ( <= ( + T6 143 )( + T2 109 ) ) )
(or ( <= ( + T2 156 )  ( + T6 143 ) ) ( <= ( + T6 189 )( + T2 127 ) ) )
(or ( <= ( + T2 160 )  ( + T6 189 ) ) ( <= ( + T6 225 )( + T2 156 ) ) )
(or ( <= ( + T2 259 )  ( + T6 225 ) ) ( <= ( + T6 229 )( + T2 160 ) ) )
(or ( <= ( + T2 40 ) T7 ) ( <= ( + T7 41 ) T2 ) )
(or ( <= ( + T2 109 )  ( + T7 41 ) ) ( <= ( + T7 68 )( + T2 40 ) ) )
(or ( <= ( + T2 127 )  ( + T7 68 ) ) ( <= ( + T7 92 )( + T2 109 ) ) )
(or ( <= ( + T2 156 )  ( + T7 92 ) ) ( <= ( + T7 103 )( + T2 127 ) ) )
(or ( <= ( + T2 160 )  ( + T7 103 ) ) ( <= ( + T7 111 )( + T2 156 ) ) )
(or ( <= ( + T2 259 )  ( + T7 111 ) ) ( <= ( + T7 190 )( + T2 160 ) ) )
(or ( <= ( + T2 40 ) T8 ) ( <= ( + T8 61 ) T2 ) )
(or ( <= ( + T2 109 )  ( + T8 61 ) ) ( <= ( + T8 76 )( + T2 40 ) ) )
(or ( <= ( + T2 127 )  ( + T8 76 ) ) ( <= ( + T8 138 )( + T2 109 ) ) )
(or ( <= ( + T2 156 )  ( + T8 138 ) ) ( <= ( + T8 238 )( + T2 127 ) ) )
(or ( <= ( + T2 160 )  ( + T8 238 ) ) ( <= ( + T8 271 )( + T2 156 ) ) )
(or ( <= ( + T2 259 )  ( + T8 271 ) ) ( <= ( + T8 300 )( + T2 160 ) ) )
(or ( <= ( + T3 8 ) T4 ) ( <= ( + T4 74 ) T3 ) )
(or ( <= ( + T3 92 )  ( + T4 74 ) ) ( <= ( + T4 169 )( + T3 8 ) ) )
(or ( <= ( + T3 132 )  ( + T4 169 ) ) ( <= ( + T4 197 )( + T3 92 ) ) )
(or ( <= ( + T3 199 )  ( + T4 197 ) ) ( <= ( + T4 231 )( + T3 132 ) ) )
(or ( <= ( + T3 266 )  ( + T4 231 ) ) ( <= ( + T4 302 )( + T3 199 ) ) )
(or ( <= ( + T3 366 )  ( + T4 302 ) ) ( <= ( + T4 341 )( + T3 266 ) ) )
(or ( <= ( + T3 8 ) T5 ) ( <= ( + T5 6 ) T3 ) )
(or ( <= ( + T3 92 )  ( + T5 6 ) ) ( <= ( + T5 47 )( + T3 8 ) ) )
(or ( <= ( + T3 132 )  ( + T5 47 ) ) ( <= ( + T5 83 )( + T3 92 ) ) )
(or ( <= ( + T3 199 )  ( + T5 83 ) ) ( <= ( + T5 132 )( + T3 132 ) ) )
(or ( <= ( + T3 266 )  ( + T5 132 ) ) ( <= ( + T5 187 )( + T3 199 ) ) )
(or ( <= ( + T3 366 )  ( + T5 187 ) ) ( <= ( + T5 231 )( + T3 266 ) ) )
(or ( <= ( + T3 8 ) T6 ) ( <= ( + T6 70 ) T3 ) )
(or ( <= ( + T3 92 )  ( + T6 70 ) ) ( <= ( + T6 127 )( + T3 8 ) ) )
(or ( <= ( + T3 132 )  ( + T6 127 ) ) ( <= ( + T6 143 )( + T3 92 ) ) )
(or ( <= ( + T3 199 )  ( + T6 143 ) ) ( <= ( + T6 189 )( + T3 132 ) ) )
(or ( <= ( + T3 266 )  ( + T6 189 ) ) ( <= ( + T6 225 )( + T3 199 ) ) )
(or ( <= ( + T3 366 )  ( + T6 225 ) ) ( <= ( + T6 229 )( + T3 266 ) ) )
(or ( <= ( + T3 8 ) T7 ) ( <= ( + T7 41 ) T3 ) )
(or ( <= ( + T3 92 )  ( + T7 41 ) ) ( <= ( + T7 68 )( + T3 8 ) ) )
(or ( <= ( + T3 132 )  ( + T7 68 ) ) ( <= ( + T7 92 )( + T3 92 ) ) )
(or ( <= ( + T3 199 )  ( + T7 92 ) ) ( <= ( + T7 103 )( + T3 132 ) ) )
(or ( <= ( + T3 266 )  ( + T7 103 ) ) ( <= ( + T7 111 )( + T3 199 ) ) )
(or ( <= ( + T3 366 )  ( + T7 111 ) ) ( <= ( + T7 190 )( + T3 266 ) ) )
(or ( <= ( + T3 8 ) T8 ) ( <= ( + T8 61 ) T3 ) )
(or ( <= ( + T3 92 )  ( + T8 61 ) ) ( <= ( + T8 76 )( + T3 8 ) ) )
(or ( <= ( + T3 132 )  ( + T8 76 ) ) ( <= ( + T8 138 )( + T3 92 ) ) )
(or ( <= ( + T3 199 )  ( + T8 138 ) ) ( <= ( + T8 238 )( + T3 132 ) ) )
(or ( <= ( + T3 266 )  ( + T8 238 ) ) ( <= ( + T8 271 )( + T3 199 ) ) )
(or ( <= ( + T3 366 )  ( + T8 271 ) ) ( <= ( + T8 300 )( + T3 266 ) ) )
(or ( <= ( + T4 74 ) T5 ) ( <= ( + T5 6 ) T4 ) )
(or ( <= ( + T4 169 )  ( + T5 6 ) ) ( <= ( + T5 47 )( + T4 74 ) ) )
(or ( <= ( + T4 197 )  ( + T5 47 ) ) ( <= ( + T5 83 )( + T4 169 ) ) )
(or ( <= ( + T4 231 )  ( + T5 83 ) ) ( <= ( + T5 132 )( + T4 197 ) ) )
(or ( <= ( + T4 302 )  ( + T5 132 ) ) ( <= ( + T5 187 )( + T4 231 ) ) )
(or ( <= ( + T4 341 )  ( + T5 187 ) ) ( <= ( + T5 231 )( + T4 302 ) ) )
(or ( <= ( + T4 74 ) T6 ) ( <= ( + T6 70 ) T4 ) )
(or ( <= ( + T4 169 )  ( + T6 70 ) ) ( <= ( + T6 127 )( + T4 74 ) ) )
(or ( <= ( + T4 197 )  ( + T6 127 ) ) ( <= ( + T6 143 )( + T4 169 ) ) )
(or ( <= ( + T4 231 )  ( + T6 143 ) ) ( <= ( + T6 189 )( + T4 197 ) ) )
(or ( <= ( + T4 302 )  ( + T6 189 ) ) ( <= ( + T6 225 )( + T4 231 ) ) )
(or ( <= ( + T4 341 )  ( + T6 225 ) ) ( <= ( + T6 229 )( + T4 302 ) ) )
(or ( <= ( + T4 74 ) T7 ) ( <= ( + T7 41 ) T4 ) )
(or ( <= ( + T4 169 )  ( + T7 41 ) ) ( <= ( + T7 68 )( + T4 74 ) ) )
(or ( <= ( + T4 197 )  ( + T7 68 ) ) ( <= ( + T7 92 )( + T4 169 ) ) )
(or ( <= ( + T4 231 )  ( + T7 92 ) ) ( <= ( + T7 103 )( + T4 197 ) ) )
(or ( <= ( + T4 302 )  ( + T7 103 ) ) ( <= ( + T7 111 )( + T4 231 ) ) )
(or ( <= ( + T4 341 )  ( + T7 111 ) ) ( <= ( + T7 190 )( + T4 302 ) ) )
(or ( <= ( + T4 74 ) T8 ) ( <= ( + T8 61 ) T4 ) )
(or ( <= ( + T4 169 )  ( + T8 61 ) ) ( <= ( + T8 76 )( + T4 74 ) ) )
(or ( <= ( + T4 197 )  ( + T8 76 ) ) ( <= ( + T8 138 )( + T4 169 ) ) )
(or ( <= ( + T4 231 )  ( + T8 138 ) ) ( <= ( + T8 238 )( + T4 197 ) ) )
(or ( <= ( + T4 302 )  ( + T8 238 ) ) ( <= ( + T8 271 )( + T4 231 ) ) )
(or ( <= ( + T4 341 )  ( + T8 271 ) ) ( <= ( + T8 300 )( + T4 302 ) ) )
(or ( <= ( + T5 6 ) T6 ) ( <= ( + T6 70 ) T5 ) )
(or ( <= ( + T5 47 )  ( + T6 70 ) ) ( <= ( + T6 127 )( + T5 6 ) ) )
(or ( <= ( + T5 83 )  ( + T6 127 ) ) ( <= ( + T6 143 )( + T5 47 ) ) )
(or ( <= ( + T5 132 )  ( + T6 143 ) ) ( <= ( + T6 189 )( + T5 83 ) ) )
(or ( <= ( + T5 187 )  ( + T6 189 ) ) ( <= ( + T6 225 )( + T5 132 ) ) )
(or ( <= ( + T5 231 )  ( + T6 225 ) ) ( <= ( + T6 229 )( + T5 187 ) ) )
(or ( <= ( + T5 6 ) T7 ) ( <= ( + T7 41 ) T5 ) )
(or ( <= ( + T5 47 )  ( + T7 41 ) ) ( <= ( + T7 68 )( + T5 6 ) ) )
(or ( <= ( + T5 83 )  ( + T7 68 ) ) ( <= ( + T7 92 )( + T5 47 ) ) )
(or ( <= ( + T5 132 )  ( + T7 92 ) ) ( <= ( + T7 103 )( + T5 83 ) ) )
(or ( <= ( + T5 187 )  ( + T7 103 ) ) ( <= ( + T7 111 )( + T5 132 ) ) )
(or ( <= ( + T5 231 )  ( + T7 111 ) ) ( <= ( + T7 190 )( + T5 187 ) ) )
(or ( <= ( + T5 6 ) T8 ) ( <= ( + T8 61 ) T5 ) )
(or ( <= ( + T5 47 )  ( + T8 61 ) ) ( <= ( + T8 76 )( + T5 6 ) ) )
(or ( <= ( + T5 83 )  ( + T8 76 ) ) ( <= ( + T8 138 )( + T5 47 ) ) )
(or ( <= ( + T5 132 )  ( + T8 138 ) ) ( <= ( + T8 238 )( + T5 83 ) ) )
(or ( <= ( + T5 187 )  ( + T8 238 ) ) ( <= ( + T8 271 )( + T5 132 ) ) )
(or ( <= ( + T5 231 )  ( + T8 271 ) ) ( <= ( + T8 300 )( + T5 187 ) ) )
(or ( <= ( + T6 70 ) T7 ) ( <= ( + T7 41 ) T6 ) )
(or ( <= ( + T6 127 )  ( + T7 41 ) ) ( <= ( + T7 68 )( + T6 70 ) ) )
(or ( <= ( + T6 143 )  ( + T7 68 ) ) ( <= ( + T7 92 )( + T6 127 ) ) )
(or ( <= ( + T6 189 )  ( + T7 92 ) ) ( <= ( + T7 103 )( + T6 143 ) ) )
(or ( <= ( + T6 225 )  ( + T7 103 ) ) ( <= ( + T7 111 )( + T6 189 ) ) )
(or ( <= ( + T6 229 )  ( + T7 111 ) ) ( <= ( + T7 190 )( + T6 225 ) ) )
(or ( <= ( + T6 70 ) T8 ) ( <= ( + T8 61 ) T6 ) )
(or ( <= ( + T6 127 )  ( + T8 61 ) ) ( <= ( + T8 76 )( + T6 70 ) ) )
(or ( <= ( + T6 143 )  ( + T8 76 ) ) ( <= ( + T8 138 )( + T6 127 ) ) )
(or ( <= ( + T6 189 )  ( + T8 138 ) ) ( <= ( + T8 238 )( + T6 143 ) ) )
(or ( <= ( + T6 225 )  ( + T8 238 ) ) ( <= ( + T8 271 )( + T6 189 ) ) )
(or ( <= ( + T6 229 )  ( + T8 271 ) ) ( <= ( + T8 300 )( + T6 225 ) ) )
(or ( <= ( + T7 41 ) T8 ) ( <= ( + T8 61 ) T7 ) )
(or ( <= ( + T7 68 )  ( + T8 61 ) ) ( <= ( + T8 76 )( + T7 41 ) ) )
(or ( <= ( + T7 92 )  ( + T8 76 ) ) ( <= ( + T8 138 )( + T7 68 ) ) )
(or ( <= ( + T7 103 )  ( + T8 138 ) ) ( <= ( + T8 238 )( + T7 92 ) ) )
(or ( <= ( + T7 111 )  ( + T8 238 ) ) ( <= ( + T8 271 )( + T7 103 ) ) )
(or ( <= ( + T7 190 )  ( + T8 271 ) ) ( <= ( + T8 300 )( + T7 111 ) ) )
( <= ( + T1 413 ) Z)
( <= ( + T2 259 ) Z)
( <= ( + T3 366 ) Z)
( <= ( + T4 341 ) Z)
( <= ( + T5 231 ) Z)
( <= ( + T6 229 ) Z)
( <= ( + T7 190 ) Z)
( <= ( + T8 300 ) Z)
( >= T1 0 )
( >= T2 0 )
( >= T3 0 )
( >= T4 0 )
( >= T5 0 )
( >= T6 0 )
( >= T7 0 )
( >= T8 0 )
) )
)(=> $phi $goal))))